Maximize

x_0_0 + x_0_1 + x_0_2 + x_0_3 + x_1_0 + x_1_1 + x_1_2 + x_1_3 + x_2_0 + x_2_1 + x_2_2 + x_2_3 + x_3_0 + x_3_1 + x_3_2 + x_3_3 + x_4_0 + x_4_1 + x_4_2 + x_4_3 + x_5_0 + x_5_1 + x_5_2 + x_5_3 + x_6_0 + x_6_1 + x_6_2 + x_6_3 + x_7_0 + x_7_1 + x_7_2 + x_7_3 + x_8_0 + x_8_1 + x_8_2 + x_8_3


Subject To

a0: 6 x_0_0 + 4 x_1_0 + 3 x_2_0 + 1 x_3_0 + 6 x_4_0 + 5 x_5_0 + 2 x_6_0 + 5 x_7_0 + 2 x_8_0 <= 10
a1: 6 x_0_1 + 4 x_1_1 + 3 x_2_1 + 1 x_3_1 + 6 x_4_1 + 5 x_5_1 + 2 x_6_1 + 5 x_7_1 + 2 x_8_1 <= 5
a2: 6 x_0_2 + 4 x_1_2 + 3 x_2_2 + 1 x_3_2 + 6 x_4_2 + 5 x_5_2 + 2 x_6_2 + 5 x_7_2 + 2 x_8_2 <= 2
a3: 6 x_0_3 + 4 x_1_3 + 3 x_2_3 + 1 x_3_3 + 6 x_4_3 + 5 x_5_3 + 2 x_6_3 + 5 x_7_3 + 2 x_8_3 <= 8
b0: x_0_0 + x_0_1 + x_0_2 + x_0_3 <= 1
b1: x_1_0 + x_1_1 + x_1_2 + x_1_3 <= 1
b2: x_2_0 + x_2_1 + x_2_2 + x_2_3 <= 1
b3: x_3_0 + x_3_1 + x_3_2 + x_3_3 <= 1
b4: x_4_0 + x_4_1 + x_4_2 + x_4_3 <= 1
b5: x_5_0 + x_5_1 + x_5_2 + x_5_3 <= 1
b6: x_6_0 + x_6_1 + x_6_2 + x_6_3 <= 1
b7: x_7_0 + x_7_1 + x_7_2 + x_7_3 <= 1
b8: x_8_0 + x_8_1 + x_8_2 + x_8_3 <= 1
c0: x_0_3 + x_1_3 <= 1
c1: x_0_3 + x_2_3 <= 1
c2: x_0_3 + x_3_3 <= 1
c3: x_0_3 + x_4_3 <= 1
c4: x_0_3 + x_6_3 <= 1
c5: x_1_3 + x_0_3 <= 1
c6: x_1_3 + x_2_3 <= 1
c7: x_1_3 + x_4_3 <= 1
c8: x_1_3 + x_5_3 <= 1
c9: x_1_3 + x_6_3 <= 1
c10: x_1_3 + x_7_3 <= 1
c11: x_1_3 + x_8_3 <= 1
c12: x_2_3 + x_0_3 <= 1
c13: x_2_3 + x_1_3 <= 1
c14: x_2_3 + x_3_3 <= 1
c15: x_2_3 + x_5_3 <= 1
c16: x_2_3 + x_6_3 <= 1
c17: x_2_3 + x_7_3 <= 1
c18: x_2_3 + x_8_3 <= 1
c19: x_3_3 + x_0_3 <= 1
c20: x_3_3 + x_2_3 <= 1
c21: x_3_3 + x_4_3 <= 1
c22: x_3_3 + x_5_3 <= 1
c23: x_3_3 + x_6_3 <= 1
c24: x_3_3 + x_7_3 <= 1
c25: x_4_3 + x_0_3 <= 1
c26: x_4_3 + x_1_3 <= 1
c27: x_4_3 + x_3_3 <= 1
c28: x_4_3 + x_6_3 <= 1
c29: x_4_3 + x_8_3 <= 1
c30: x_5_3 + x_1_3 <= 1
c31: x_5_3 + x_2_3 <= 1
c32: x_5_3 + x_3_3 <= 1
c33: x_5_3 + x_6_3 <= 1
c34: x_5_3 + x_8_3 <= 1
c35: x_6_3 + x_0_3 <= 1
c36: x_6_3 + x_1_3 <= 1
c37: x_6_3 + x_2_3 <= 1
c38: x_6_3 + x_3_3 <= 1
c39: x_6_3 + x_4_3 <= 1
c40: x_6_3 + x_5_3 <= 1
c41: x_6_3 + x_7_3 <= 1
c42: x_6_3 + x_8_3 <= 1
c43: x_7_3 + x_1_3 <= 1
c44: x_7_3 + x_2_3 <= 1
c45: x_7_3 + x_3_3 <= 1
c46: x_7_3 + x_6_3 <= 1
c47: x_7_3 + x_8_3 <= 1
c48: x_8_3 + x_1_3 <= 1
c49: x_8_3 + x_2_3 <= 1
c50: x_8_3 + x_4_3 <= 1
c51: x_8_3 + x_5_3 <= 1
c52: x_8_3 + x_6_3 <= 1
c53: x_8_3 + x_7_3 <= 1




Binary

x_0_0 x_0_1 x_0_2 x_0_3 x_1_0 x_1_1 x_1_2 x_1_3 x_2_0 x_2_1 x_2_2 x_2_3 x_3_0 x_3_1 x_3_2 x_3_3 x_4_0 x_4_1 x_4_2 x_4_3 x_5_0 x_5_1 x_5_2 x_5_3 x_6_0 x_6_1 x_6_2 x_6_3 x_7_0 x_7_1 x_7_2 x_7_3 x_8_0 x_8_1 x_8_2 x_8_3

 


End
